NAME /Users/henri/Research/solvers/instances/idol-instances/robust/collection/spp_dkp_Lefebvre_et_al_2026/shortest_path_5_8/uncertainty_sets/discrete_knapsack
ROWS
 N  OBJ
 L  primal_lower
COLUMNS
    MARKER    'MARKER'                 'INTORG'
    y[0,1]     OBJ        0
    y[0,1]     primal_lower -3.09
    y[0,2]     OBJ        0
    y[0,2]     primal_lower -1.43
    y[0,3]     OBJ        0
    y[0,3]     primal_lower -1.6
    y[0,4]     OBJ        0
    y[0,4]     primal_lower -2.48
    y[1,0]     OBJ        0
    y[1,0]     primal_lower -2.36
    y[1,2]     OBJ        0
    y[1,2]     primal_lower -6.23
    y[1,3]     OBJ        0
    y[1,3]     primal_lower -2.55
    y[1,4]     OBJ        0
    y[1,4]     primal_lower -4.82
    y[2,0]     OBJ        0
    y[2,0]     primal_lower -4.75
    y[2,1]     OBJ        0
    y[2,1]     primal_lower -1.94
    y[2,3]     OBJ        0
    y[2,3]     primal_lower -2.17
    y[3,0]     OBJ        0
    y[3,0]     primal_lower -2.2
    y[3,1]     OBJ        0
    y[3,1]     primal_lower -0.91
    y[3,2]     OBJ        0
    y[3,2]     primal_lower -6.08
    y[4,0]     OBJ        0
    y[4,0]     primal_lower -5.68
    y[4,1]     OBJ        0
    y[4,1]     primal_lower -3.5
    u[0,1]     OBJ        0
    u[0,1]     primal_lower 88
    u[0,2]     OBJ        0
    u[0,2]     primal_lower 86
    u[0,3]     OBJ        0
    u[0,3]     primal_lower 100
    u[0,4]     OBJ        0
    u[0,4]     primal_lower 35
    u[1,0]     OBJ        0
    u[1,0]     primal_lower 74
    u[1,2]     OBJ        0
    u[1,2]     primal_lower 76
    u[1,3]     OBJ        0
    u[1,3]     primal_lower 79
    u[1,4]     OBJ        0
    u[1,4]     primal_lower 36
    u[2,0]     OBJ        0
    u[2,0]     primal_lower 76
    u[2,1]     OBJ        0
    u[2,1]     primal_lower 78
    u[2,3]     OBJ        0
    u[2,3]     primal_lower 50
    u[3,0]     OBJ        0
    u[3,0]     primal_lower 1
    u[3,1]     OBJ        0
    u[3,1]     primal_lower 89
    u[3,2]     OBJ        0
    u[3,2]     primal_lower 14
    u[4,0]     OBJ        0
    u[4,0]     primal_lower 60
    u[4,1]     OBJ        0
    u[4,1]     primal_lower 36
    MARKER    'MARKER'                 'INTEND'
RHS
    RHS       primal_lower 100
BOUNDS
 LI BND       y[0,1]     0
 UI BND       y[0,1]     1
 LI BND       y[0,2]     0
 UI BND       y[0,2]     1
 LI BND       y[0,3]     0
 UI BND       y[0,3]     1
 LI BND       y[0,4]     0
 UI BND       y[0,4]     1
 LI BND       y[1,0]     0
 UI BND       y[1,0]     1
 LI BND       y[1,2]     0
 UI BND       y[1,2]     1
 LI BND       y[1,3]     0
 UI BND       y[1,3]     1
 LI BND       y[1,4]     0
 UI BND       y[1,4]     1
 LI BND       y[2,0]     0
 UI BND       y[2,0]     1
 LI BND       y[2,1]     0
 UI BND       y[2,1]     1
 LI BND       y[2,3]     0
 UI BND       y[2,3]     1
 LI BND       y[3,0]     0
 UI BND       y[3,0]     1
 LI BND       y[3,1]     0
 UI BND       y[3,1]     1
 LI BND       y[3,2]     0
 UI BND       y[3,2]     1
 LI BND       y[4,0]     0
 UI BND       y[4,0]     1
 LI BND       y[4,1]     0
 UI BND       y[4,1]     1
 LI BND       u[0,1]     0
 UI BND       u[0,1]     1
 LI BND       u[0,2]     0
 UI BND       u[0,2]     1
 LI BND       u[0,3]     0
 UI BND       u[0,3]     1
 LI BND       u[0,4]     0
 UI BND       u[0,4]     1
 LI BND       u[1,0]     0
 UI BND       u[1,0]     1
 LI BND       u[1,2]     0
 UI BND       u[1,2]     1
 LI BND       u[1,3]     0
 UI BND       u[1,3]     1
 LI BND       u[1,4]     0
 UI BND       u[1,4]     1
 LI BND       u[2,0]     0
 UI BND       u[2,0]     1
 LI BND       u[2,1]     0
 UI BND       u[2,1]     1
 LI BND       u[2,3]     0
 UI BND       u[2,3]     1
 LI BND       u[3,0]     0
 UI BND       u[3,0]     1
 LI BND       u[3,1]     0
 UI BND       u[3,1]     1
 LI BND       u[3,2]     0
 UI BND       u[3,2]     1
 LI BND       u[4,0]     0
 UI BND       u[4,0]     1
 LI BND       u[4,1]     0
 UI BND       u[4,1]     1
ENDATA
